nr_shelves = 20;
shelves = [15, 15, 10];

Product = P(1..5);

product_size = 
[|       Length: Width: Height: 
 | P(1):      6,     3,      3
 | P(2):      7,     8,      7
 | P(3):      8,    10,      4
 | P(4):     15,    10,      2
 | P(5):      9,     4,      7
 |];

nr_products = [12, 5, 15, 10, 8];
